<instance format="XCSP3" type="CSP">
  <variables>
    <var id="x0"> 0 2 3 10 11 14 </var>
    <var id="x1"> 0 2 11 14 </var>
    <var id="x2"> 0 2 10 11 13 </var>
    <var id="x3"> 2 11 13 14 </var>
    <var id="x4"> 0 13 14 </var>
    <var id="x5"> 0 3 10 13 </var>
    <var id="x6"> 0 13 </var>
    <var id="x7"> 0 2 3 11 14 </var>
    <var id="x8"> 0 2 6 11 14 </var>
    <var id="x9"> 0 2 11 13 </var>
    <var id="x10"> 0 2 6 11 13 </var>
    <var id="x11"> 0 6 11 13 14 </var>
    <var id="x12"> 2 3 13 14 </var>
    <var id="x13"> 2 3 6 11 13 </var>
    <var id="x14"> 0 </var>
    <var id="x15"> 0 8 </var>
    <var id="x16"> 1 8 13 </var>
    <var id="x17"> 9 13 </var>
    <var id="x18"> 0 1 7 8 13 </var>
    <var id="x19"> 0 1 8 9 12 13 </var>
    <var id="x20"> 1 7 12 13 </var>
    <var id="x21"> 0 6 11 </var>
    <var id="x22"> 0 7 11 </var>
    <var id="x23"> 1 11 </var>
    <var id="x24"> 1 3 7 </var>
    <var id="x25"> 3 7 12 </var>
    <var id="x26"> 3 6 11 </var>
    <var id="x27"> 1 3 6 7 12 </var>
    <var id="x28"> 6 11 </var>
    <var id="x29"> 6 13 </var>
    <var id="x30"> 1 6 11 13 </var>
    <var id="x31"> 5..7 11 13 </var>
    <var id="x32"> 1 7 10 13 </var>
    <var id="x33"> 5..7 10 13 </var>
    <var id="x34"> 1 7 10 13 </var>
    <var id="x35"> 2 4 11 13 </var>
    <var id="x36"> 0 4 13 </var>
    <var id="x37"> 0 2 11 13 </var>
    <var id="x38"> 2 10 13 </var>
    <var id="x39"> 2 13 </var>
    <var id="x40"> 5 10 11 </var>
    <var id="x41"> 0 4 10 13 </var>
    <var id="x42"> 2 3 10 14 </var>
    <var id="x43"> 2 10 </var>
    <var id="x44"> 1 2 14 </var>
    <var id="x45"> 6 12 14 </var>
    <var id="x46"> 1..3 10 14 </var>
    <var id="x47"> 2 3 6 10 </var>
    <var id="x48"> 1 3 6 10 12 </var>
    <var id="x49"> 5 10 11 13 </var>
    <var id="x50"> 9 13 14 </var>
    <var id="x51"> 5 11 13 14 </var>
    <var id="x52"> 8 13 14 </var>
    <var id="x53"> 5 8..11 14 </var>
    <var id="x54"> 8 10 13 </var>
    <var id="x55"> 10 13 </var>
    <var id="x56"> 1 8 13 </var>
    <var id="x57"> 0 6 13 </var>
    <var id="x58"> 3 8 13 </var>
    <var id="x59"> 0 3 6 10 13 </var>
    <var id="x60"> 6 8 10 </var>
    <var id="x61"> 3 6 10 13 </var>
    <var id="x62"> 0 1 8 13 </var>
    <var id="x63"> 0 5 </var>
    <var id="x64"> 0 6 9 13 </var>
    <var id="x65"> 0 6 13 </var>
    <var id="x66"> 0 5..7 13 </var>
    <var id="x67"> 0 5..7 13 </var>
    <var id="x68"> 5 6 8 9 </var>
    <var id="x69"> 0 7 8 13 </var>
    <var id="x70"> 0 2 10 </var>
    <var id="x71"> 0 7 10 13 </var>
    <var id="x72"> 8 10 </var>
    <var id="x73"> 2 10 13 </var>
    <var id="x74"> 0 4 7 8 10 13 </var>
    <var id="x75"> 0 4 8 13 </var>
    <var id="x76"> 7 10 13 </var>
    <var id="x77"> 2 6 8 14 </var>
    <var id="x78"> 6 13 14 </var>
    <var id="x79"> 2 6 13 </var>
    <var id="x80"> 5..7 13 14 </var>
    <var id="x81"> 2 7 8 13 14 </var>
    <var id="x82"> 5 6 8 14 </var>
    <var id="x83"> 6 7 13 </var>
    <var id="x84"> 2 11 14 </var>
    <var id="x85"> 2 4 8 11 14 </var>
    <var id="x86"> 2 11..13 </var>
    <var id="x87"> 11 13 14 </var>
    <var id="x88"> 2 8 13 14 </var>
    <var id="x89"> 2 8 12..14 </var>
    <var id="x90"> 4 8 12 13 </var>
    <var id="x91"> 0 2 13 </var>
    <var id="x92"> 2 4 13 14 </var>
    <var id="x93"> 0 2 6 13 </var>
    <var id="x94"> 2 3 13 14 </var>
    <var id="x95"> 2 3 13 14 </var>
    <var id="x96"> 0 3 6 13 </var>
    <var id="x97"> 2 3 6 9 13 </var>
    <var id="x98"> 0 4 9 13 </var>
    <var id="x99"> 7 10 11 </var>
    <var id="x100"> 7 12 14 </var>
    <var id="x101"> 7 10 </var>
    <var id="x102"> 10 11 14 </var>
    <var id="x103"> 1 4 7 10 </var>
    <var id="x104"> 1 4 12 </var>
    <var id="x105"> 1 7 10 12 </var>
  </variables>
  <constraints>
    <group>
      <allDifferent> %... </allDifferent>
      <args> x0 x1 x2 x3 x4 x5 x6 </args>
      <args> x7 x8 x9 x10 x11 x12 x13 </args>
      <args> x14 x15 x16 x17 x18 x19 x20 </args>
      <args> x21 x22 x23 x24 x25 x26 x27 </args>
      <args> x28 x29 x30 x31 x32 x33 x34 </args>
      <args> x35 x36 x37 x38 x39 x40 x41 </args>
      <args> x42 x43 x44 x45 x46 x47 x48 </args>
      <args> x49 x50 x51 x52 x53 x54 x55 </args>
      <args> x56 x57 x58 x59 x60 x61 x62 </args>
      <args> x63 x64 x65 x66 x67 x68 x69 </args>
      <args> x70 x71 x72 x73 x74 x75 x76 </args>
      <args> x77 x78 x79 x80 x81 x82 x83 </args>
      <args> x84 x85 x86 x87 x88 x89 x90 </args>
      <args> x91 x92 x93 x94 x95 x96 x97 x98 </args>
      <args> x99 x100 x101 x102 x103 x104 x105 </args>
      <args> x0 x7 x14 x42 x63 x70 x84 </args>
      <args> x1 x8 x15 x21 x28 x77 x85 </args>
      <args> x2 x9 x22 x43 x49 x91 x99 </args>
      <args> x3 x16 x23 x35 x44 x56 x92 </args>
      <args> x4 x29 x36 x45 x50 x64 x78 </args>
      <args> x10 x30 x37 x65 x79 x86 x93 </args>
      <args> x11 x31 x51 x57 x66 x80 x87 </args>
      <args> x12 x24 x32 x38 x46 x81 x88 x94 </args>
      <args> x25 x39 x52 x58 x89 x95 x100 </args>
      <args> x5 x33 x59 x67 x71 x96 x101 </args>
      <args> x40 x53 x60 x68 x72 x82 x102 </args>
      <args> x13 x17 x26 x47 x61 x73 x97 </args>
      <args> x18 x34 x41 x54 x69 x74 x103 </args>
      <args> x6 x19 x62 x75 x90 x98 x104 </args>
      <args> x20 x27 x48 x55 x76 x83 x105 </args>
    </group>
  </constraints>
</instance>

